c File: instances/32_0.25_2.col
c
c Description: Random graph of size 32 vertices and P(0.25) of edges between any two vertices.
p col 32 496
e 1 4
e 1 7
e 1 8
e 1 9
e 1 15
e 1 18
e 1 20
e 2 8
e 2 14
e 2 21
e 2 23
e 3 10
e 3 11
e 3 20
e 3 31
e 4 7
e 4 8
e 4 13
e 4 15
e 4 16
e 4 25
e 4 29
e 4 30
e 4 31
e 5 10
e 5 19
e 5 21
e 5 23
e 5 29
e 5 32
e 6 8
e 6 9
e 6 10
e 6 13
e 6 19
e 6 21
e 6 23
e 6 25
e 6 27
e 7 8
e 7 9
e 7 11
e 7 23
e 7 24
e 7 28
e 7 29
e 8 11
e 8 13
e 8 18
e 8 19
e 8 25
e 9 23
e 9 28
e 10 11
e 10 16
e 10 17
e 10 19
e 10 22
e 10 26
e 10 28
e 11 12
e 11 32
e 12 15
e 12 17
e 13 15
e 13 26
e 13 28
e 13 29
e 13 30
e 13 32
e 14 21
e 14 22
e 14 23
e 14 26
e 14 27
e 14 31
e 14 32
e 15 23
e 15 24
e 15 25
e 15 28
e 15 29
e 16 22
e 16 23
e 16 24
e 16 28
e 16 31
e 17 18
e 17 19
e 17 25
e 17 31
e 18 19
e 18 21
e 18 30
e 18 31
e 19 22
e 19 24
e 19 25
e 19 27
e 19 31
e 20 28
e 21 22
e 21 28
e 22 23
e 22 29
e 23 26
e 23 32
e 24 27
e 24 28
e 25 30
e 25 32
e 26 27
e 26 29
e 26 31
e 27 29
e 27 32
e 30 31